
Log started (V22.2.0.0) Tue Jun  9 08:33:12 2026

New value for time limit in seconds: 120
New value for default parallel thread count: 4
New value for mixed integer optimality gap tolerance: 0.001
New value for level of mixed integer node display: 2

Problem 'results/InstanceA9_bigm_finsteps123.lp' read.
Read time = 0.01 sec. (0.55 ticks)
Version identifier: 22.2.0.0 | 2026-05-04 | 5dff98e58
CPXPARAM_Threads                                 4
CPXPARAM_TimeLimit                               120
CPXPARAM_MIP_Tolerances_MIPGap                   0.001
Tried aggregator 2 times.
MIP Presolve eliminated 38 rows and 38 columns.
MIP Presolve modified 63709 coefficients.
Aggregator did 401 substitutions.
Reduced MIP has 5655 rows, 3059 columns, and 16542 nonzeros.
Reduced MIP has 2658 binaries, 0 generals, 0 SOSs, and 0 indicators.
Presolve time = 0.02 sec. (28.01 ticks)
Found incumbent of value 60.000000 after 0.03 sec. (39.07 ticks)
Probing time = 0.00 sec. (4.39 ticks)
Tried aggregator 1 time.
Detecting symmetries...
MIP Presolve modified 33 coefficients.
Reduced MIP has 5655 rows, 3059 columns, and 16542 nonzeros.
Reduced MIP has 2658 binaries, 0 generals, 0 SOSs, and 0 indicators.
Presolve time = 0.00 sec. (9.05 ticks)
Probing time = 0.00 sec. (4.06 ticks)
Clique table members: 1869.
MIP emphasis: balance optimality and feasibility.
MIP search method: dynamic search.
Parallel mode: deterministic, using up to 4 threads.
Root relaxation solution time = 0.02 sec. (147.63 ticks)

        Nodes                                         Cuts/
   Node  Left     Objective  IInf  Best Integer    Best Bound    ItCnt     Gap

*     0+    0                           60.0000       18.0000            70.00%
      0     0       18.0000     8       60.0000       18.0000     2340   70.00%
*     0+    0                           25.0000       18.0000            28.00%
*     0+    0                           18.0000       18.0000             0.00%
      0     0        cutoff             18.0000       18.0000     2407    0.00%
Elapsed time = 0.08 sec. (240.10 ticks, tree = 0.01 MB, solutions = 3)

Clique cuts applied:  2
Implied bound cuts applied:  1
Mixed integer rounding cuts applied:  10

Root node processing (before b&c):
  Real time             =    0.08 sec. (240.32 ticks)
Parallel b&c, 4 threads:
  Real time             =    0.00 sec. (0.00 ticks)
  Sync time (average)   =    0.00 sec.
  Wait time (average)   =    0.00 sec.
                          ------------
Total (root+branch&cut) =    0.08 sec. (240.32 ticks)

Solution pool: 3 solutions saved.

MIP - Integer optimal solution:  Objective =  1.8000000000e+01
Solution time =    0.08 sec.  Iterations = 2407  Nodes = 0
Deterministic time = 240.33 ticks  (2950.82 ticks/sec)


Incumbent solution written to file 'results/InstanceA9_bigm_finsteps123.sol'.
